solution status: optimal solution found
objective value:                     132578.355306102
d11(0,0)                                            1 	(obj:0)
d11(1,1)                                            1 	(obj:0)
d11(1,2)                                            1 	(obj:0)
d11(2,4)                                            1 	(obj:0)
d11(2,5)                                            1 	(obj:0)
d11(2,7)                                            1 	(obj:0)
d11(2,8)                                            1 	(obj:0)
d11(2,10)                                           1 	(obj:0)
d11(2,11)                                           1 	(obj:0)
d11(3,13)                                           1 	(obj:0)
d11(3,14)                                           1 	(obj:0)
d11(3,15)                                           1 	(obj:0)
d11(3,16)                                           1 	(obj:0)
d11(3,17)                                           1 	(obj:0)
d11(3,18)                                           1 	(obj:0)
d11(3,19)                                           1 	(obj:0)
d11(3,20)                                           1 	(obj:0)
d11(3,21)                                           1 	(obj:0)
d11(3,22)                                           1 	(obj:0)
d11(3,23)                                           1 	(obj:0)
d11(3,24)                                           1 	(obj:0)
d11(3,25)                                           1 	(obj:0)
d11(3,26)                                           1 	(obj:0)
d11(3,27)                                           1 	(obj:0)
d11(3,28)                                           1 	(obj:0)
d11(3,29)                                           1 	(obj:0)
d11(3,30)                                           1 	(obj:0)
d11(3,31)                                           1 	(obj:0)
d11(3,32)                                           1 	(obj:0)
d11(3,33)                                           1 	(obj:0)
d11(3,34)                                           1 	(obj:0)
d11(3,35)                                           1 	(obj:0)
d11(3,36)                                           1 	(obj:0)
d11(3,37)                                           1 	(obj:0)
d11(3,38)                                           1 	(obj:0)
d11(3,39)                                           1 	(obj:0)
d12(1,3)                                            1 	(obj:0)
d12(2,6)                                            1 	(obj:0)
d12(2,12)                                           1 	(obj:0)
d21(3,13)                                           1 	(obj:0)
d21(3,14)                                           1 	(obj:0)
d21(3,15)                                           1 	(obj:0)
d21(3,16)                                           1 	(obj:0)
d21(3,17)                                           1 	(obj:0)
d21(3,19)                                           1 	(obj:0)
d21(3,22)                                           1 	(obj:0)
d21(3,23)                                           1 	(obj:0)
d21(3,25)                                           1 	(obj:0)
d21(3,31)                                           1 	(obj:0)
STE(1,1)                             6671.76436339869 	(obj:0)
STE(0,0)                                         9450 	(obj:0)
STE(1,2)                             7668.53036673201 	(obj:0)
STE(1,3)                                         8694 	(obj:0)
STE(2,4)                             3893.52872679732 	(obj:0)
STE(2,5)                             4890.29473013061 	(obj:0)
STE(2,6)                             5915.76436339869 	(obj:0)
STE(2,7)                             4890.29473013064 	(obj:0)
STE(2,8)                             5887.06073346393 	(obj:0)
STE(2,9)                             6912.53036673201 	(obj:0)
STE(2,10)                            5915.76436339863 	(obj:0)
STE(2,11)                             6912.5303667319 	(obj:0)
STE(2,12)                            7937.99999999999 	(obj:0)
STE(3,13)                            789.702190000102 	(obj:0)
STE(3,14)                            1786.46819333339 	(obj:0)
STE(3,15)                            3003.92039666677 	(obj:0)
STE(3,16)                            1786.46819333339 	(obj:0)
STE(3,17)                            2783.23419666668 	(obj:0)
STE(3,18)                            4000.68640000006 	(obj:0)
STE(3,19)                            2811.93782660147 	(obj:0)
STE(3,20)                            3808.70382993476 	(obj:0)
STE(3,21)                            5026.15603326814 	(obj:0)
STE(3,22)                            1786.46819333342 	(obj:0)
STE(3,23)                            2783.23419666671 	(obj:0)
STE(3,24)                            4000.68640000009 	(obj:0)
STE(3,25)                            2783.23419666671 	(obj:0)
STE(3,26)                                   3780.0002 	(obj:0)
STE(3,27)                            4997.45240333338 	(obj:0)
STE(3,28)                            3808.70382993479 	(obj:0)
STE(3,29)                            4805.46983326808 	(obj:0)
STE(3,30)                            6022.92203660145 	(obj:0)
STE(3,31)                            2811.93782660141 	(obj:0)
STE(3,32)                             3808.7038299347 	(obj:0)
STE(3,33)                            5026.15603326808 	(obj:0)
STE(3,34)                            3808.70382993468 	(obj:0)
STE(3,35)                            4805.46983326797 	(obj:0)
STE(3,36)                            6022.92203660135 	(obj:0)
STE(3,37)                            4834.17346320277 	(obj:0)
STE(3,38)                            5830.93946653606 	(obj:0)
STE(3,39)                            7048.39166986944 	(obj:0)
y1(3,23)                             1215.95448011754 	(obj:0)
y1(3,24)                             120.247497117496 	(obj:0)
y1(3,25)                              2113.0438831175 	(obj:0)
y1(3,26)                             1215.95448011754 	(obj:0)
y1(3,27)                             120.247497117496 	(obj:0)
y1(3,28)                              2113.0438831175 	(obj:0)
y1(3,29)                             1215.95448011754 	(obj:0)
y1(3,30)                             120.247497117496 	(obj:0)
y1(3,31)                              2113.0438831175 	(obj:0)
y1(3,32)                             1215.95448011754 	(obj:0)
y1(3,33)                             120.247497117496 	(obj:0)
y1(3,34)                              2113.0438831175 	(obj:0)
y1(3,35)                             1215.95448011754 	(obj:0)
y1(3,36)                             120.247497117496 	(obj:0)
y1(3,37)                              2113.0438831175 	(obj:0)
y1(3,38)                             1215.95448011754 	(obj:0)
y1(3,39)                             120.247497117496 	(obj:0)
BG(3)                                1327.26452434614 	(obj:10)
AVE(1)                               3199.95851117552 	(obj:0)
AVE(2)                               3265.15049132519 	(obj:0)
AVE(3)                               3291.35535332476 	(obj:0)
WG(1)                                3199.95851117552 	(obj:10)
WG(2)                                3265.15049132519 	(obj:10)
WG(3)                                3291.35535332476 	(obj:10)
BG(1)                                1119.64931529506 	(obj:10)
BG(2)                                 1054.4573351454 	(obj:10)
y1(1,1)                              1820.01207294118 	(obj:0)
y1(1,2)                              922.922669941195 	(obj:0)
y1(2,4)                              1820.01207294123 	(obj:0)
y1(2,5)                               922.92266994127 	(obj:0)
y1(2,7)                              1820.01207294123 	(obj:0)
y1(2,8)                               922.92266994127 	(obj:0)
y1(2,10)                             1820.01207294123 	(obj:0)
y1(2,11)                             922.922669941289 	(obj:0)
y1(3,13)                              2113.0438831175 	(obj:0)
y1(3,14)                             1215.95448011754 	(obj:0)
y1(3,15)                             120.247497117496 	(obj:0)
y1(3,16)                              2113.0438831175 	(obj:0)
y1(3,17)                             1215.95448011754 	(obj:0)
y1(3,18)                             120.247497117496 	(obj:0)
y1(3,19)                              2113.0438831175 	(obj:0)
y1(3,20)                             1215.95448011754 	(obj:0)
y1(3,21)                             120.247497117496 	(obj:0)
y1(3,22)                              2113.0438831175 	(obj:0)
